1704.37
0 27 58 80 41 52 57 79 35 22 14 47 69 33 82 40 96 28 21 32 67 12 64 87 68 81 55 74 78 61 30 2 89 63 97 60 38 4 93 24 70 7 51 65 20 6 42 59 53 91 77 84 29 5 19 62 85 3 76 43 37 45 86 92 73 54 13 39 95 17 15 72 56 34 23 36 8 44 16 1 18 26 50 11 94 25 98 10 46 48 83 49 71 9 75 88 66 90 99 31
